
Value of objective function: 5.00000000

Actual values of the variables:
Z                               4
x0                              1
x1                              0
x2                              0
x3                              0
